55
1 0 10
2 0 29
2 1 10
3 0 49
3 1 3
3 2 41
4 0 46
4 1 16
4 2 48
4 3 8
5 0 42
5 1 27
5 2 3
5 3 1
5 4 9
6 0 17
6 1 15
6 2 49
6 3 45
6 4 32
6 5 21
7 0 23
7 1 28
7 2 18
7 3 43
7 4 21
7 5 26
7 6 10
8 0 21
8 1 28
8 2 30
8 3 9
8 4 10
8 5 18
8 6 40
8 7 11
9 0 26
9 1 34
9 2 10
9 3 2
9 4 45
9 5 11
9 6 22
9 7 50
9 8 47
10 0 26
10 1 49
10 2 50
10 3 1
10 4 39
10 5 38
10 6 5
10 7 46
10 8 22
10 9 1
11 0 37
11 1 2
11 2 10
11 3 22
11 4 40
11 5 31
11 6 13
11 7 36
11 8 35
11 9 4
11 10 34
12 0 28
12 1 16
12 2 34
12 3 5
12 4 10
12 5 25
12 6 36
12 7 25
12 8 22
12 9 20
12 10 23
12 11 26
13 0 31
13 1 42
13 2 49
13 3 30
13 4 38
13 5 36
13 6 46
13 7 44
13 8 12
13 9 32
13 10 50
13 11 30
13 12 22
14 0 38
14 1 12
14 2 44
14 3 16
14 4 26
14 5 42
14 6 16
14 7 41
14 8 16
14 9 41
14 10 21
14 11 32
14 12 36
14 13 47
15 0 33
15 1 33
15 2 30
15 3 23
15 4 27
15 5 6
15 6 17
15 7 43
15 8 8
15 9 19
15 10 47
15 11 30
15 12 37
15 13 40
15 14 37
16 0 20
16 1 40
16 2 4
16 3 2
16 4 35
16 5 19
16 6 3
16 7 36
16 8 12
16 9 27
16 10 46
16 11 49
16 12 49
16 13 19
16 14 10
16 15 24
17 0 45
17 1 49
17 2 7
17 3 29
17 4 1
17 5 8
17 6 8
17 7 25
17 8 6
17 9 44
17 10 28
17 11 32
17 12 41
17 13 36
17 14 39
17 15 13
17 16 39
18 0 41
18 1 35
18 2 21
18 3 37
18 4 4
18 5 48
18 6 36
18 7 49
18 8 30
18 9 11
18 10 10
18 11 46
18 12 35
18 13 30
18 14 40
18 15 39
18 16 44
18 17 12
19 0 43
19 1 23
19 2 26
19 3 15
19 4 29
19 5 8
19 6 25
19 7 42
19 8 33
19 9 11
19 10 34
19 11 39
19 12 22
19 13 28
19 14 4
19 15 20
19 16 4
19 17 15
19 18 4
20 0 16
20 1 44
20 2 33
20 3 15
20 4 7
20 5 31
20 6 8
20 7 29
20 8 32
20 9 25
20 10 37
20 11 21
20 12 31
20 13 4
20 14 21
20 15 44
20 16 42
20 17 22
20 18 13
20 19 26
21 0 16
21 1 18
21 2 14
21 3 14
21 4 2
21 5 2
21 6 4
21 7 47
21 8 8
21 9 50
21 10 35
21 11 48
21 12 40
21 13 50
21 14 40
21 15 26
21 16 11
21 17 10
21 18 5
21 19 12
21 20 10
22 0 37
22 1 44
22 2 46
22 3 15
22 4 26
22 5 42
22 6 9
22 7 1
22 8 10
22 9 36
22 10 41
22 11 34
22 12 6
22 13 13
22 14 20
22 15 20
22 16 50
22 17 34
22 18 14
22 19 41
22 20 32
22 21 27
23 0 7
23 1 19
23 2 44
23 3 46
23 4 37
23 5 6
23 6 32
23 7 46
23 8 19
23 9 16
23 10 25
23 11 11
23 12 20
23 13 35
23 14 32
23 15 2
23 16 25
23 17 47
23 18 34
23 19 38
23 20 8
23 21 17
23 22 44
24 0 17
24 1 40
24 2 16
24 3 40
24 4 32
24 5 47
24 6 7
24 7 18
24 8 41
24 9 25
24 10 27
24 11 40
24 12 25
24 13 30
24 14 33
24 15 48
24 16 39
24 17 45
24 18 9
24 19 12
24 20 43
24 21 7
24 22 34
24 23 32
25 0 35
25 1 34
25 2 30
25 3 1
25 4 33
25 5 32
25 6 14
25 7 32
25 8 29
25 9 25
25 10 48
25 11 7
25 12 16
25 13 14
25 14 39
25 15 2
25 16 48
25 17 46
25 18 6
25 19 4
25 20 3
25 21 18
25 22 42
25 23 4
25 24 31
26 0 9
26 1 9
26 2 12
26 3 45
26 4 14
26 5 24
26 6 44
26 7 48
26 8 36
26 9 49
26 10 6
26 11 37
26 12 16
26 13 13
26 14 2
26 15 46
26 16 25
26 17 10
26 18 18
26 19 6
26 20 38
26 21 19
26 22 24
26 23 40
26 24 37
26 25 23
27 0 30
27 1 12
27 2 26
27 3 44
27 4 12
27 5 22
27 6 41
27 7 46
27 8 16
27 9 27
27 10 10
27 11 43
27 12 29
27 13 19
27 14 24
27 15 2
27 16 13
27 17 18
27 18 39
27 19 38
27 20 45
27 21 16
27 22 5
27 23 33
27 24 3
27 25 25
27 26 21
28 0 29
28 1 6
28 2 32
28 3 19
28 4 20
28 5 20
28 6 36
28 7 14
28 8 15
28 9 34
28 10 8
28 11 3
28 12 15
28 13 10
28 14 2
28 15 12
28 16 7
28 17 10
28 18 1
28 19 2
28 20 37
28 21 27
28 22 2
28 23 25
28 24 2
28 25 36
28 26 35
28 27 29
29 0 36
29 1 29
29 2 3
29 3 22
29 4 3
29 5 19
29 6 13
29 7 40
29 8 14
29 9 5
29 10 16
29 11 6
29 12 42
29 13 2
29 14 35
29 15 17
29 16 22
29 17 10
29 18 41
29 19 1
29 20 4
29 21 3
29 22 21
29 23 20
29 24 4
29 25 25
29 26 22
29 27 27
29 28 7
30 0 7
30 1 1
30 2 36
30 3 27
30 4 25
30 5 28
30 6 32
30 7 26
30 8 16
30 9 2
30 10 5
30 11 3
30 12 24
30 13 50
30 14 15
30 15 30
30 16 46
30 17 2
30 18 44
30 19 42
30 20 32
30 21 24
30 22 11
30 23 5
30 24 42
30 25 35
30 26 43
30 27 10
30 28 30
30 29 18
31 0 1
31 1 46
31 2 33
31 3 13
31 4 12
31 5 10
31 6 13
31 7 46
31 8 1
31 9 39
31 10 7
31 11 41
31 12 48
31 13 11
31 14 3
31 15 47
31 16 21
31 17 50
31 18 25
31 19 10
31 20 4
31 21 16
31 22 20
31 23 40
31 24 42
31 25 8
31 26 5
31 27 28
31 28 32
31 29 14
31 30 37
32 0 41
32 1 32
32 2 8
32 3 49
32 4 26
32 5 22
32 6 27
32 7 32
32 8 14
32 9 18
32 10 39
32 11 34
32 12 6
32 13 13
32 14 48
32 15 27
32 16 27
32 17 45
32 18 42
32 19 47
32 20 17
32 21 11
32 22 4
32 23 27
32 24 39
32 25 48
32 26 46
32 27 43
32 28 14
32 29 20
32 30 32
32 31 42
33 0 5
33 1 11
33 2 23
33 3 32
33 4 49
33 5 32
33 6 19
33 7 14
33 8 2
33 9 31
33 10 30
33 11 48
33 12 2
33 13 28
33 14 1
33 15 20
33 16 21
33 17 28
33 18 19
33 19 1
33 20 36
33 21 41
33 22 39
33 23 34
33 24 35
33 25 7
33 26 34
33 27 2
33 28 39
33 29 37
33 30 42
33 31 17
33 32 36
34 0 10
34 1 20
34 2 24
34 3 49
34 4 38
34 5 22
34 6 12
34 7 43
34 8 30
34 9 24
34 10 37
34 11 17
34 12 32
34 13 47
34 14 22
34 15 25
34 16 9
34 17 13
34 18 30
34 19 37
34 20 18
34 21 23
34 22 34
34 23 6
34 24 50
34 25 21
34 26 6
34 27 33
34 28 38
34 29 28
34 30 36
34 31 25
34 32 13
34 33 25
35 0 15
35 1 4
35 2 44
35 3 19
35 4 26
35 5 35
35 6 18
35 7 47
35 8 2
35 9 22
35 10 2
35 11 44
35 12 11
35 13 2
35 14 46
35 15 30
35 16 9
35 17 3
35 18 31
35 19 34
35 20 3
35 21 46
35 22 38
35 23 43
35 24 28
35 25 11
35 26 28
35 27 39
35 28 2
35 29 30
35 30 37
35 31 13
35 32 10
35 33 48
35 34 35
36 0 44
36 1 28
36 2 43
36 3 43
36 4 35
36 5 34
36 6 27
36 7 30
36 8 42
36 9 34
36 10 31
36 11 48
36 12 2
36 13 22
36 14 25
36 15 17
36 16 25
36 17 30
36 18 16
36 19 34
36 20 25
36 21 18
36 22 25
36 23 42
36 24 35
36 25 26
36 26 27
36 27 14
36 28 10
36 29 14
36 30 31
36 31 6
36 32 32
36 33 41
36 34 1
36 35 21
37 0 37
37 1 37
37 2 26
37 3 49
37 4 26
37 5 33
37 6 8
37 7 49
37 8 39
37 9 36
37 10 9
37 11 36
37 12 25
37 13 41
37 14 48
37 15 38
37 16 30
37 17 31
37 18 15
37 19 18
37 20 41
37 21 50
37 22 10
37 23 11
37 24 46
37 25 3
37 26 14
37 27 37
37 28 20
37 29 16
37 30 12
37 31 13
37 32 20
37 33 10
37 34 4
37 35 7
37 36 24
38 0 21
38 1 3
38 2 34
38 3 26
38 4 34
38 5 24
38 6 46
38 7 42
38 8 28
38 9 44
38 10 5
38 11 14
38 12 3
38 13 10
38 14 24
38 15 1
38 16 24
38 17 47
38 18 15
38 19 3
38 20 7
38 21 25
38 22 21
38 23 50
38 24 4
38 25 3
38 26 1
38 27 15
38 28 20
38 29 36
38 30 1
38 31 6
38 32 5
38 33 6
38 34 20
38 35 31
38 36 31
38 37 5
39 0 31
39 1 15
39 2 25
39 3 27
39 4 27
39 5 25
39 6 27
39 7 30
39 8 36
39 9 23
39 10 35
39 11 27
39 12 1
39 13 19
39 14 26
39 15 8
39 16 41
39 17 19
39 18 39
39 19 20
39 20 18
39 21 25
39 22 31
39 23 39
39 24 43
39 25 35
39 26 20
39 27 31
39 28 25
39 29 2
39 30 13
39 31 5
39 32 28
39 33 13
39 34 32
39 35 45
39 36 8
39 37 5
39 38 29
40 0 40
40 1 14
40 2 38
40 3 32
40 4 14
40 5 14
40 6 41
40 7 20
40 8 24
40 9 44
40 10 33
40 11 9
40 12 38
40 13 21
40 14 20
40 15 25
40 16 23
40 17 46
40 18 19
40 19 48
40 20 16
40 21 1
40 22 21
40 23 2
40 24 46
40 25 2
40 26 39
40 27 45
40 28 23
40 29 39
40 30 42
40 31 47
40 32 47
40 33 29
40 34 45
40 35 3
40 36 46
40 37 44
40 38 22
40 39 22
41 0 6
41 1 19
41 2 5
41 3 37
41 4 5
41 5 18
41 6 43
41 7 39
41 8 45
41 9 46
41 10 14
41 11 2
41 12 26
41 13 8
41 14 1
41 15 41
41 16 19
41 17 24
41 18 31
41 19 30
41 20 10
41 21 27
41 22 22
41 23 5
41 24 5
41 25 38
41 26 19
41 27 50
41 28 41
41 29 4
41 30 29
41 31 26
41 32 6
41 33 26
41 34 10
41 35 2
41 36 48
41 37 46
41 38 10
41 39 28
41 40 6
42 0 29
42 1 25
42 2 43
42 3 7
42 4 42
42 5 47
42 6 16
42 7 40
42 8 47
42 9 14
42 10 3
42 11 35
42 12 22
42 13 29
42 14 40
42 15 16
42 16 13
42 17 7
42 18 18
42 19 45
42 20 2
42 21 36
42 22 6
42 23 1
42 24 17
42 25 35
42 26 22
42 27 25
42 28 46
42 29 13
42 30 6
42 31 8
42 32 7
42 33 4
42 34 18
42 35 30
42 36 8
42 37 46
42 38 35
42 39 47
42 40 31
42 41 48
43 0 2
43 1 8
43 2 38
43 3 48
43 4 29
43 5 31
43 6 13
43 7 31
43 8 20
43 9 34
43 10 23
43 11 36
43 12 46
43 13 42
43 14 18
43 15 28
43 16 27
43 17 22
43 18 42
43 19 17
43 20 9
43 21 1
43 22 46
43 23 7
43 24 26
43 25 1
43 26 1
43 27 29
43 28 1
43 29 3
43 30 24
43 31 35
43 32 16
43 33 20
43 34 38
43 35 16
43 36 17
43 37 50
43 38 19
43 39 42
43 40 14
43 41 17
43 42 4
44 0 32
44 1 15
44 2 5
44 3 4
44 4 6
44 5 35
44 6 9
44 7 14
44 8 20
44 9 33
44 10 38
44 11 44
44 12 42
44 13 2
44 14 7
44 15 30
44 16 13
44 17 45
44 18 48
44 19 32
44 20 18
44 21 13
44 22 45
44 23 4
44 24 25
44 25 42
44 26 28
44 27 49
44 28 20
44 29 29
44 30 35
44 31 8
44 32 46
44 33 47
44 34 44
44 35 22
44 36 2
44 37 30
44 38 41
44 39 29
44 40 44
44 41 1
44 42 23
44 43 2
45 0 24
45 1 40
45 2 20
45 3 45
45 4 12
45 5 45
45 6 2
45 7 3
45 8 31
45 9 12
45 10 42
45 11 15
45 12 20
45 13 10
45 14 21
45 15 47
45 16 25
45 17 43
45 18 16
45 19 2
45 20 19
45 21 11
45 22 43
45 23 22
45 24 15
45 25 39
45 26 7
45 27 12
45 28 46
45 29 48
45 30 18
45 31 8
45 32 21
45 33 20
45 34 50
45 35 14
45 36 31
45 37 8
45 38 12
45 39 47
45 40 4
45 41 16
45 42 6
45 43 27
45 44 4
46 0 25
46 1 42
46 2 49
46 3 48
46 4 8
46 5 25
46 6 36
46 7 10
46 8 44
46 9 16
46 10 34
46 11 15
46 12 8
46 13 33
46 14 27
46 15 14
46 16 42
46 17 36
46 18 5
46 19 9
46 20 35
46 21 40
46 22 48
46 23 22
46 24 44
46 25 10
46 26 16
46 27 11
46 28 33
46 29 22
46 30 44
46 31 40
46 32 14
46 33 11
46 34 16
46 35 14
46 36 27
46 37 13
46 38 18
46 39 50
46 40 25
46 41 10
46 42 41
46 43 45
46 44 26
46 45 35
47 0 3
47 1 20
47 2 10
47 3 3
47 4 28
47 5 27
47 6 18
47 7 26
47 8 31
47 9 32
47 10 44
47 11 8
47 12 31
47 13 24
47 14 5
47 15 11
47 16 1
47 17 48
47 18 1
47 19 5
47 20 8
47 21 35
47 22 31
47 23 24
47 24 36
47 25 43
47 26 1
47 27 4
47 28 5
47 29 20
47 30 7
47 31 20
47 32 9
47 33 23
47 34 21
47 35 50
47 36 19
47 37 21
47 38 17
47 39 34
47 40 43
47 41 8
47 42 6
47 43 3
47 44 6
47 45 13
47 46 34
48 0 38
48 1 33
48 2 10
48 3 40
48 4 13
48 5 11
48 6 7
48 7 6
48 8 41
48 9 44
48 10 16
48 11 13
48 12 16
48 13 49
48 14 29
48 15 11
48 16 34
48 17 31
48 18 17
48 19 4
48 20 23
48 21 15
48 22 2
48 23 24
48 24 31
48 25 38
48 26 49
48 27 10
48 28 32
48 29 27
48 30 1
48 31 8
48 32 10
48 33 7
48 34 24
48 35 33
48 36 35
48 37 13
48 38 16
48 39 19
48 40 42
48 41 29
48 42 25
48 43 25
48 44 47
48 45 30
48 46 38
48 47 24
49 0 18
49 1 50
49 2 37
49 3 32
49 4 25
49 5 13
49 6 42
49 7 50
49 8 30
49 9 22
49 10 2
49 11 47
49 12 14
49 13 27
49 14 9
49 15 31
49 16 28
49 17 50
49 18 49
49 19 16
49 20 33
49 21 34
49 22 38
49 23 42
49 24 47
49 25 44
49 26 49
49 27 50
49 28 40
49 29 13
49 30 39
49 31 34
49 32 10
49 33 17
49 34 9
49 35 45
49 36 29
49 37 8
49 38 33
49 39 50
49 40 36
49 41 24
49 42 21
49 43 45
49 44 12
49 45 14
49 46 15
49 47 44
49 48 38
50 0 18
50 1 12
50 2 26
50 3 35
50 4 46
50 5 39
50 6 34
50 7 26
50 8 32
50 9 1
50 10 25
50 11 25
50 12 5
50 13 7
50 14 7
50 15 42
50 16 28
50 17 47
50 18 25
50 19 18
50 20 11
50 21 29
50 22 3
50 23 4
50 24 32
50 25 11
50 26 44
50 27 27
50 28 45
50 29 50
50 30 5
50 31 34
50 32 32
50 33 7
50 34 36
50 35 35
50 36 6
50 37 28
50 38 13
50 39 42
50 40 3
50 41 21
50 42 38
50 43 25
50 44 22
50 45 43
50 46 13
50 47 44
50 48 5
50 49 13
51 0 26
51 1 47
51 2 29
51 3 8
51 4 36
51 5 36
51 6 11
51 7 36
51 8 24
51 9 4
51 10 6
51 11 2
51 12 18
51 13 10
51 14 45
51 15 49
51 16 26
51 17 44
51 18 29
51 19 10
51 20 35
51 21 12
51 22 9
51 23 33
51 24 5
51 25 8
51 26 24
51 27 34
51 28 4
51 29 46
51 30 20
51 31 11
51 32 49
51 33 35
51 34 41
51 35 15
51 36 3
51 37 36
51 38 33
51 39 19
51 40 33
51 41 32
51 42 36
51 43 18
51 44 1
51 45 9
51 46 28
51 47 21
51 48 11
51 49 43
51 50 16
52 0 35
52 1 18
52 2 50
52 3 25
52 4 45
52 5 47
52 6 34
52 7 37
52 8 50
52 9 39
52 10 32
52 11 21
52 12 44
52 13 19
52 14 24
52 15 27
52 16 16
52 17 7
52 18 6
52 19 5
52 20 39
52 21 9
52 22 45
52 23 5
52 24 3
52 25 23
52 26 26
52 27 38
52 28 31
52 29 19
52 30 35
52 31 29
52 32 1
52 33 23
52 34 25
52 35 19
52 36 48
52 37 16
52 38 10
52 39 31
52 40 46
52 41 13
52 42 35
52 43 8
52 44 12
52 45 10
52 46 28
52 47 38
52 48 5
52 49 33
52 50 6
52 51 41
53 0 39
53 1 12
53 2 24
53 3 40
53 4 26
53 5 24
53 6 10
53 7 2
53 8 10
53 9 16
53 10 45
53 11 19
53 12 5
53 13 25
53 14 9
53 15 36
53 16 22
53 17 21
53 18 43
53 19 45
53 20 15
53 21 30
53 22 44
53 23 13
53 24 15
53 25 24
53 26 33
53 27 32
53 28 45
53 29 19
53 30 45
53 31 44
53 32 24
53 33 44
53 34 50
53 35 50
53 36 16
53 37 42
53 38 16
53 39 38
53 40 15
53 41 33
53 42 20
53 43 3
53 44 45
53 45 44
53 46 29
53 47 17
53 48 35
53 49 7
53 50 37
53 51 17
53 52 37
54 0 33
54 1 4
54 2 25
54 3 3
54 4 15
54 5 50
54 6 42
54 7 30
54 8 34
54 9 44
54 10 28
54 11 13
54 12 35
54 13 2
54 14 5
54 15 19
54 16 43
54 17 5
54 18 34
54 19 29
54 20 42
54 21 35
54 22 39
54 23 21
54 24 20
54 25 21
54 26 33
54 27 46
54 28 28
54 29 49
54 30 7
54 31 34
54 32 29
54 33 18
54 34 12
54 35 31
54 36 20
54 37 17
54 38 7
54 39 31
54 40 7
54 41 28
54 42 50
54 43 40
54 44 9
54 45 13
54 46 13
54 47 44
54 48 44
54 49 45
54 50 24
54 51 15
54 52 36
54 53 42
